\ Model UnassignedDistance
\ LP format - for model browsing. Use MPS format to capture full model detail.
Minimize
  z[0,1,0] + z[0,1,1] + z[0,1,2] + z[0,1,3] + z[0,1,4] + z[0,1,5] + z[0,2,0]
   + z[0,2,1] + z[0,2,2] + z[0,2,3] + z[0,2,4] + z[0,2,5] + z[0,3,0]
   + z[0,3,1] + z[0,3,2] + z[0,3,3] + z[0,3,4] + z[0,3,5] + z[1,2,0]
   + z[1,2,1] + z[1,2,2] + z[1,2,3] + z[1,2,4] + z[1,2,5] + z[1,3,0]
   + z[1,3,1] + z[1,3,2] + z[1,3,3] + z[1,3,4] + z[1,3,5] + z[2,3,0]
   + z[2,3,1] + z[2,3,2] + z[2,3,3] + z[2,3,4] + z[2,3,5]
   - 13.4212 Constant
Subject To
 C1auxA_0_1[0]: - x[0][0] + x[1][0] + v[0,1][0] = 0
 C1auxA_0_1[1]: - x[0][1] + x[1][1] + v[0,1][1] = 0
 C1auxA_0_1[2]: - x[0][2] + x[1][2] + v[0,1][2] = 0
 C2A_0_1_0: - 3.8724 a[0,1,0] + z[0,1,0] <= 0
 C2B_0_1_0: 3.8724 a[0,1,0] + z[0,1,0] >= 0
 C3A_0_1_0: 3.8724 a[0,1,0] + z[0,1,0] <= 5.5724
 C3B_0_1_0: - 3.8724 a[0,1,0] + z[0,1,0] >= -2.5724
 C2A_0_1_1: - 3.8724 a[0,1,1] + z[0,1,1] <= 0
 C2B_0_1_1: 3.8724 a[0,1,1] + z[0,1,1] >= 0
 C3A_0_1_1: 3.8724 a[0,1,1] + z[0,1,1] <= 5.5724
 C3B_0_1_1: - 3.8724 a[0,1,1] + z[0,1,1] >= -2.5724
 C2A_0_1_2: - 3.8724 a[0,1,2] + z[0,1,2] <= 0
 C2B_0_1_2: 3.8724 a[0,1,2] + z[0,1,2] >= 0
 C3A_0_1_2: 3.8724 a[0,1,2] + z[0,1,2] <= 5.5724
 C3B_0_1_2: - 3.8724 a[0,1,2] + z[0,1,2] >= -2.5724
 C2A_0_1_3: - 3.8724 a[0,1,3] + z[0,1,3] <= 0
 C2B_0_1_3: 3.8724 a[0,1,3] + z[0,1,3] >= 0
 C3A_0_1_3: 3.8724 a[0,1,3] + z[0,1,3] <= 6.5968
 C3B_0_1_3: - 3.8724 a[0,1,3] + z[0,1,3] >= -1.548
 C2A_0_1_4: - 3.8724 a[0,1,4] + z[0,1,4] <= 0
 C2B_0_1_4: 3.8724 a[0,1,4] + z[0,1,4] >= 0
 C3A_0_1_4: 3.8724 a[0,1,4] + z[0,1,4] <= 6.5968
 C3B_0_1_4: - 3.8724 a[0,1,4] + z[0,1,4] >= -1.548
 C2A_0_1_5: - 3.8724 a[0,1,5] + z[0,1,5] <= 0
 C2B_0_1_5: 3.8724 a[0,1,5] + z[0,1,5] >= 0
 C3A_0_1_5: 3.8724 a[0,1,5] + z[0,1,5] <= 7.9448
 C3B_0_1_5: - 3.8724 a[0,1,5] + z[0,1,5] >= -0.2
 C1auxA_0_2[0]: - x[0][0] + x[2][0] + v[0,2][0] = 0
 C1auxA_0_2[1]: - x[0][1] + x[2][1] + v[0,2][1] = 0
 C1auxA_0_2[2]: - x[0][2] + x[2][2] + v[0,2][2] = 0
 C2A_0_2_0: - 3.8724 a[0,2,0] + z[0,2,0] <= 0
 C2B_0_2_0: 3.8724 a[0,2,0] + z[0,2,0] >= 0
 C3A_0_2_0: 3.8724 a[0,2,0] + z[0,2,0] <= 5.5724
 C3B_0_2_0: - 3.8724 a[0,2,0] + z[0,2,0] >= -2.5724
 C2A_0_2_1: - 3.8724 a[0,2,1] + z[0,2,1] <= 0
 C2B_0_2_1: 3.8724 a[0,2,1] + z[0,2,1] >= 0
 C3A_0_2_1: 3.8724 a[0,2,1] + z[0,2,1] <= 5.5724
 C3B_0_2_1: - 3.8724 a[0,2,1] + z[0,2,1] >= -2.5724
 C2A_0_2_2: - 3.8724 a[0,2,2] + z[0,2,2] <= 0
 C2B_0_2_2: 3.8724 a[0,2,2] + z[0,2,2] >= 0
 C3A_0_2_2: 3.8724 a[0,2,2] + z[0,2,2] <= 5.5724
 C3B_0_2_2: - 3.8724 a[0,2,2] + z[0,2,2] >= -2.5724
 C2A_0_2_3: - 3.8724 a[0,2,3] + z[0,2,3] <= 0
 C2B_0_2_3: 3.8724 a[0,2,3] + z[0,2,3] >= 0
 C3A_0_2_3: 3.8724 a[0,2,3] + z[0,2,3] <= 6.5968
 C3B_0_2_3: - 3.8724 a[0,2,3] + z[0,2,3] >= -1.548
 C2A_0_2_4: - 3.8724 a[0,2,4] + z[0,2,4] <= 0
 C2B_0_2_4: 3.8724 a[0,2,4] + z[0,2,4] >= 0
 C3A_0_2_4: 3.8724 a[0,2,4] + z[0,2,4] <= 6.5968
 C3B_0_2_4: - 3.8724 a[0,2,4] + z[0,2,4] >= -1.548
 C2A_0_2_5: - 3.8724 a[0,2,5] + z[0,2,5] <= 0
 C2B_0_2_5: 3.8724 a[0,2,5] + z[0,2,5] >= 0
 C3A_0_2_5: 3.8724 a[0,2,5] + z[0,2,5] <= 7.9448
 C3B_0_2_5: - 3.8724 a[0,2,5] + z[0,2,5] >= -0.2
 C1auxA_0_3[0]: - x[0][0] + x[3][0] + v[0,3][0] = 0
 C1auxA_0_3[1]: - x[0][1] + x[3][1] + v[0,3][1] = 0
 C1auxA_0_3[2]: - x[0][2] + x[3][2] + v[0,3][2] = 0
 C2A_0_3_0: - 3.8724 a[0,3,0] + z[0,3,0] <= 0
 C2B_0_3_0: 3.8724 a[0,3,0] + z[0,3,0] >= 0
 C3A_0_3_0: 3.8724 a[0,3,0] + z[0,3,0] <= 5.5724
 C3B_0_3_0: - 3.8724 a[0,3,0] + z[0,3,0] >= -2.5724
 C2A_0_3_1: - 3.8724 a[0,3,1] + z[0,3,1] <= 0
 C2B_0_3_1: 3.8724 a[0,3,1] + z[0,3,1] >= 0
 C3A_0_3_1: 3.8724 a[0,3,1] + z[0,3,1] <= 5.5724
 C3B_0_3_1: - 3.8724 a[0,3,1] + z[0,3,1] >= -2.5724
 C2A_0_3_2: - 3.8724 a[0,3,2] + z[0,3,2] <= 0
 C2B_0_3_2: 3.8724 a[0,3,2] + z[0,3,2] >= 0
 C3A_0_3_2: 3.8724 a[0,3,2] + z[0,3,2] <= 5.5724
 C3B_0_3_2: - 3.8724 a[0,3,2] + z[0,3,2] >= -2.5724
 C2A_0_3_3: - 3.8724 a[0,3,3] + z[0,3,3] <= 0
 C2B_0_3_3: 3.8724 a[0,3,3] + z[0,3,3] >= 0
 C3A_0_3_3: 3.8724 a[0,3,3] + z[0,3,3] <= 6.5968
 C3B_0_3_3: - 3.8724 a[0,3,3] + z[0,3,3] >= -1.548
 C2A_0_3_4: - 3.8724 a[0,3,4] + z[0,3,4] <= 0
 C2B_0_3_4: 3.8724 a[0,3,4] + z[0,3,4] >= 0
 C3A_0_3_4: 3.8724 a[0,3,4] + z[0,3,4] <= 6.5968
 C3B_0_3_4: - 3.8724 a[0,3,4] + z[0,3,4] >= -1.548
 C2A_0_3_5: - 3.8724 a[0,3,5] + z[0,3,5] <= 0
 C2B_0_3_5: 3.8724 a[0,3,5] + z[0,3,5] >= 0
 C3A_0_3_5: 3.8724 a[0,3,5] + z[0,3,5] <= 7.9448
 C3B_0_3_5: - 3.8724 a[0,3,5] + z[0,3,5] >= -0.2
 C1auxA_1_2[0]: - x[1][0] + x[2][0] + v[1,2][0] = 0
 C1auxA_1_2[1]: - x[1][1] + x[2][1] + v[1,2][1] = 0
 C1auxA_1_2[2]: - x[1][2] + x[2][2] + v[1,2][2] = 0
 C2A_1_2_0: - 3.8724 a[1,2,0] + z[1,2,0] <= 0
 C2B_1_2_0: 3.8724 a[1,2,0] + z[1,2,0] >= 0
 C3A_1_2_0: 3.8724 a[1,2,0] + z[1,2,0] <= 5.5724
 C3B_1_2_0: - 3.8724 a[1,2,0] + z[1,2,0] >= -2.5724
 C2A_1_2_1: - 3.8724 a[1,2,1] + z[1,2,1] <= 0
 C2B_1_2_1: 3.8724 a[1,2,1] + z[1,2,1] >= 0
 C3A_1_2_1: 3.8724 a[1,2,1] + z[1,2,1] <= 5.5724
 C3B_1_2_1: - 3.8724 a[1,2,1] + z[1,2,1] >= -2.5724
 C2A_1_2_2: - 3.8724 a[1,2,2] + z[1,2,2] <= 0
 C2B_1_2_2: 3.8724 a[1,2,2] + z[1,2,2] >= 0
 C3A_1_2_2: 3.8724 a[1,2,2] + z[1,2,2] <= 5.5724
 C3B_1_2_2: - 3.8724 a[1,2,2] + z[1,2,2] >= -2.5724
 C2A_1_2_3: - 3.8724 a[1,2,3] + z[1,2,3] <= 0
 C2B_1_2_3: 3.8724 a[1,2,3] + z[1,2,3] >= 0
 C3A_1_2_3: 3.8724 a[1,2,3] + z[1,2,3] <= 6.5968
 C3B_1_2_3: - 3.8724 a[1,2,3] + z[1,2,3] >= -1.548
 C2A_1_2_4: - 3.8724 a[1,2,4] + z[1,2,4] <= 0
 C2B_1_2_4: 3.8724 a[1,2,4] + z[1,2,4] >= 0
 C3A_1_2_4: 3.8724 a[1,2,4] + z[1,2,4] <= 6.5968
 C3B_1_2_4: - 3.8724 a[1,2,4] + z[1,2,4] >= -1.548
 C2A_1_2_5: - 3.8724 a[1,2,5] + z[1,2,5] <= 0
 C2B_1_2_5: 3.8724 a[1,2,5] + z[1,2,5] >= 0
 C3A_1_2_5: 3.8724 a[1,2,5] + z[1,2,5] <= 7.9448
 C3B_1_2_5: - 3.8724 a[1,2,5] + z[1,2,5] >= -0.2
 C1auxA_1_3[0]: - x[1][0] + x[3][0] + v[1,3][0] = 0
 C1auxA_1_3[1]: - x[1][1] + x[3][1] + v[1,3][1] = 0
 C1auxA_1_3[2]: - x[1][2] + x[3][2] + v[1,3][2] = 0
 C2A_1_3_0: - 3.8724 a[1,3,0] + z[1,3,0] <= 0
 C2B_1_3_0: 3.8724 a[1,3,0] + z[1,3,0] >= 0
 C3A_1_3_0: 3.8724 a[1,3,0] + z[1,3,0] <= 5.5724
 C3B_1_3_0: - 3.8724 a[1,3,0] + z[1,3,0] >= -2.5724
 C2A_1_3_1: - 3.8724 a[1,3,1] + z[1,3,1] <= 0
 C2B_1_3_1: 3.8724 a[1,3,1] + z[1,3,1] >= 0
 C3A_1_3_1: 3.8724 a[1,3,1] + z[1,3,1] <= 5.5724
 C3B_1_3_1: - 3.8724 a[1,3,1] + z[1,3,1] >= -2.5724
 C2A_1_3_2: - 3.8724 a[1,3,2] + z[1,3,2] <= 0
 C2B_1_3_2: 3.8724 a[1,3,2] + z[1,3,2] >= 0
 C3A_1_3_2: 3.8724 a[1,3,2] + z[1,3,2] <= 5.5724
 C3B_1_3_2: - 3.8724 a[1,3,2] + z[1,3,2] >= -2.5724
 C2A_1_3_3: - 3.8724 a[1,3,3] + z[1,3,3] <= 0
 C2B_1_3_3: 3.8724 a[1,3,3] + z[1,3,3] >= 0
 C3A_1_3_3: 3.8724 a[1,3,3] + z[1,3,3] <= 6.5968
 C3B_1_3_3: - 3.8724 a[1,3,3] + z[1,3,3] >= -1.548
 C2A_1_3_4: - 3.8724 a[1,3,4] + z[1,3,4] <= 0
 C2B_1_3_4: 3.8724 a[1,3,4] + z[1,3,4] >= 0
 C3A_1_3_4: 3.8724 a[1,3,4] + z[1,3,4] <= 6.5968
 C3B_1_3_4: - 3.8724 a[1,3,4] + z[1,3,4] >= -1.548
 C2A_1_3_5: - 3.8724 a[1,3,5] + z[1,3,5] <= 0
 C2B_1_3_5: 3.8724 a[1,3,5] + z[1,3,5] >= 0
 C3A_1_3_5: 3.8724 a[1,3,5] + z[1,3,5] <= 7.9448
 C3B_1_3_5: - 3.8724 a[1,3,5] + z[1,3,5] >= -0.2
 C1auxA_2_3[0]: - x[2][0] + x[3][0] + v[2,3][0] = 0
 C1auxA_2_3[1]: - x[2][1] + x[3][1] + v[2,3][1] = 0
 C1auxA_2_3[2]: - x[2][2] + x[3][2] + v[2,3][2] = 0
 C2A_2_3_0: - 3.8724 a[2,3,0] + z[2,3,0] <= 0
 C2B_2_3_0: 3.8724 a[2,3,0] + z[2,3,0] >= 0
 C3A_2_3_0: 3.8724 a[2,3,0] + z[2,3,0] <= 5.5724
 C3B_2_3_0: - 3.8724 a[2,3,0] + z[2,3,0] >= -2.5724
 C2A_2_3_1: - 3.8724 a[2,3,1] + z[2,3,1] <= 0
 C2B_2_3_1: 3.8724 a[2,3,1] + z[2,3,1] >= 0
 C3A_2_3_1: 3.8724 a[2,3,1] + z[2,3,1] <= 5.5724
 C3B_2_3_1: - 3.8724 a[2,3,1] + z[2,3,1] >= -2.5724
 C2A_2_3_2: - 3.8724 a[2,3,2] + z[2,3,2] <= 0
 C2B_2_3_2: 3.8724 a[2,3,2] + z[2,3,2] >= 0
 C3A_2_3_2: 3.8724 a[2,3,2] + z[2,3,2] <= 5.5724
 C3B_2_3_2: - 3.8724 a[2,3,2] + z[2,3,2] >= -2.5724
 C2A_2_3_3: - 3.8724 a[2,3,3] + z[2,3,3] <= 0
 C2B_2_3_3: 3.8724 a[2,3,3] + z[2,3,3] >= 0
 C3A_2_3_3: 3.8724 a[2,3,3] + z[2,3,3] <= 6.5968
 C3B_2_3_3: - 3.8724 a[2,3,3] + z[2,3,3] >= -1.548
 C2A_2_3_4: - 3.8724 a[2,3,4] + z[2,3,4] <= 0
 C2B_2_3_4: 3.8724 a[2,3,4] + z[2,3,4] >= 0
 C3A_2_3_4: 3.8724 a[2,3,4] + z[2,3,4] <= 6.5968
 C3B_2_3_4: - 3.8724 a[2,3,4] + z[2,3,4] >= -1.548
 C2A_2_3_5: - 3.8724 a[2,3,5] + z[2,3,5] <= 0
 C2B_2_3_5: 3.8724 a[2,3,5] + z[2,3,5] >= 0
 C3A_2_3_5: 3.8724 a[2,3,5] + z[2,3,5] <= 7.9448
 C3B_2_3_5: - 3.8724 a[2,3,5] + z[2,3,5] >= -0.2
 R162: a[0,1,0] + a[0,2,0] + a[0,3,0] + a[1,2,0] + a[1,3,0] + a[2,3,0] = 1
 R163: a[0,1,1] + a[0,2,1] + a[0,3,1] + a[1,2,1] + a[1,3,1] + a[2,3,1] = 1
 R164: a[0,1,2] + a[0,2,2] + a[0,3,2] + a[1,2,2] + a[1,3,2] + a[2,3,2] = 1
 R165: a[0,1,3] + a[0,2,3] + a[0,3,3] + a[1,2,3] + a[1,3,3] + a[2,3,3] = 1
 R166: a[0,1,4] + a[0,2,4] + a[0,3,4] + a[1,2,4] + a[1,3,4] + a[2,3,4] = 1
 R167: a[0,1,5] + a[0,2,5] + a[0,3,5] + a[1,2,5] + a[1,3,5] + a[2,3,5] = 1
 R168: a[0,1,0] + a[0,1,1] + a[0,1,2] + a[0,1,3] + a[0,1,4] + a[0,1,5]
   <= 1
 R169: a[0,2,0] + a[0,2,1] + a[0,2,2] + a[0,2,3] + a[0,2,4] + a[0,2,5]
   <= 1
 R170: a[0,3,0] + a[0,3,1] + a[0,3,2] + a[0,3,3] + a[0,3,4] + a[0,3,5]
   <= 1
 R171: a[1,2,0] + a[1,2,1] + a[1,2,2] + a[1,2,3] + a[1,2,4] + a[1,2,5]
   <= 1
 R172: a[1,3,0] + a[1,3,1] + a[1,3,2] + a[1,3,3] + a[1,3,4] + a[1,3,5]
   <= 1
 R173: a[2,3,0] + a[2,3,1] + a[2,3,2] + a[2,3,3] + a[2,3,4] + a[2,3,5]
   <= 1
 C1_0_1_0: z[0,1,0] + [ - w[0,1] * a[0,1,0] ] = 0
 C1_0_1_1: z[0,1,1] + [ - w[0,1] * a[0,1,1] ] = 0
 C1_0_1_2: z[0,1,2] + [ - w[0,1] * a[0,1,2] ] = 0
 C1_0_1_3: z[0,1,3] + [ - w[0,1] * a[0,1,3] ] = 0
 C1_0_1_4: z[0,1,4] + [ - w[0,1] * a[0,1,4] ] = 0
 C1_0_1_5: z[0,1,5] + [ - w[0,1] * a[0,1,5] ] = 0
 C1_0_2_0: z[0,2,0] + [ - w[0,2] * a[0,2,0] ] = 0
 C1_0_2_1: z[0,2,1] + [ - w[0,2] * a[0,2,1] ] = 0
 C1_0_2_2: z[0,2,2] + [ - w[0,2] * a[0,2,2] ] = 0
 C1_0_2_3: z[0,2,3] + [ - w[0,2] * a[0,2,3] ] = 0
 C1_0_2_4: z[0,2,4] + [ - w[0,2] * a[0,2,4] ] = 0
 C1_0_2_5: z[0,2,5] + [ - w[0,2] * a[0,2,5] ] = 0
 C1_0_3_0: z[0,3,0] + [ - w[0,3] * a[0,3,0] ] = 0
 C1_0_3_1: z[0,3,1] + [ - w[0,3] * a[0,3,1] ] = 0
 C1_0_3_2: z[0,3,2] + [ - w[0,3] * a[0,3,2] ] = 0
 C1_0_3_3: z[0,3,3] + [ - w[0,3] * a[0,3,3] ] = 0
 C1_0_3_4: z[0,3,4] + [ - w[0,3] * a[0,3,4] ] = 0
 C1_0_3_5: z[0,3,5] + [ - w[0,3] * a[0,3,5] ] = 0
 C1_1_2_0: z[1,2,0] + [ - w[1,2] * a[1,2,0] ] = 0
 C1_1_2_1: z[1,2,1] + [ - w[1,2] * a[1,2,1] ] = 0
 C1_1_2_2: z[1,2,2] + [ - w[1,2] * a[1,2,2] ] = 0
 C1_1_2_3: z[1,2,3] + [ - w[1,2] * a[1,2,3] ] = 0
 C1_1_2_4: z[1,2,4] + [ - w[1,2] * a[1,2,4] ] = 0
 C1_1_2_5: z[1,2,5] + [ - w[1,2] * a[1,2,5] ] = 0
 C1_1_3_0: z[1,3,0] + [ - w[1,3] * a[1,3,0] ] = 0
 C1_1_3_1: z[1,3,1] + [ - w[1,3] * a[1,3,1] ] = 0
 C1_1_3_2: z[1,3,2] + [ - w[1,3] * a[1,3,2] ] = 0
 C1_1_3_3: z[1,3,3] + [ - w[1,3] * a[1,3,3] ] = 0
 C1_1_3_4: z[1,3,4] + [ - w[1,3] * a[1,3,4] ] = 0
 C1_1_3_5: z[1,3,5] + [ - w[1,3] * a[1,3,5] ] = 0
 C1_2_3_0: z[2,3,0] + [ - w[2,3] * a[2,3,0] ] = 0
 C1_2_3_1: z[2,3,1] + [ - w[2,3] * a[2,3,1] ] = 0
 C1_2_3_2: z[2,3,2] + [ - w[2,3] * a[2,3,2] ] = 0
 C1_2_3_3: z[2,3,3] + [ - w[2,3] * a[2,3,3] ] = 0
 C1_2_3_4: z[2,3,4] + [ - w[2,3] * a[2,3,4] ] = 0
 C1_2_3_5: z[2,3,5] + [ - w[2,3] * a[2,3,5] ] = 0
Bounds
 Constant = 1
Binaries
 a[0,1,0] a[0,1,1] a[0,1,2] a[0,1,3] a[0,1,4] a[0,1,5] a[0,2,0] a[0,2,1]
 a[0,2,2] a[0,2,3] a[0,2,4] a[0,2,5] a[0,3,0] a[0,3,1] a[0,3,2] a[0,3,3]
 a[0,3,4] a[0,3,5] a[1,2,0] a[1,2,1] a[1,2,2] a[1,2,3] a[1,2,4] a[1,2,5]
 a[1,3,0] a[1,3,1] a[1,3,2] a[1,3,3] a[1,3,4] a[1,3,5] a[2,3,0] a[2,3,1]
 a[2,3,2] a[2,3,3] a[2,3,4] a[2,3,5]
General Constraints
 C1auxB_0_1: w[0,1] = NORM ( 2 ) ( v[0,1][0] , v[0,1][1] , v[0,1][2] )
 C1auxB_0_2: w[0,2] = NORM ( 2 ) ( v[0,2][0] , v[0,2][1] , v[0,2][2] )
 C1auxB_0_3: w[0,3] = NORM ( 2 ) ( v[0,3][0] , v[0,3][1] , v[0,3][2] )
 C1auxB_1_2: w[1,2] = NORM ( 2 ) ( v[1,2][0] , v[1,2][1] , v[1,2][2] )
 C1auxB_1_3: w[1,3] = NORM ( 2 ) ( v[1,3][0] , v[1,3][1] , v[1,3][2] )
 C1auxB_2_3: w[2,3] = NORM ( 2 ) ( v[2,3][0] , v[2,3][1] , v[2,3][2] )
End
